p cnf 12 50 
10 9 -8 0
-6 4 11 0
11 6 -7 0
-1 2 -3 0
11 -10 7 0
-8 -4 -11 0
-3 -5 7 0
10 -2 5 0
5 6 -2 0
-5 -9 -7 0
-2 -1 -3 0
-2 1 3 0
10 -6 8 0
1 -4 5 0
-5 -3 10 0
5 -12 -8 0
6 7 5 0
12 6 1 0
-12 -2 3 0
2 3 5 0
-11 1 -7 0
-9 2 -7 0
4 1 -2 0
-1 2 -12 0
2 -1 10 0
8 -10 -2 0
-12 7 11 0
8 -3 -4 0
-4 5 -12 0
4 -6 1 0
6 5 -4 0
-4 3 -2 0
3 -8 -1 0
12 -5 8 0
11 7 -8 0
-8 6 11 0
-12 7 8 0
-1 -9 2 0
-1 6 -10 0
4 -2 -12 0
-12 -1 -7 0
8 10 -6 0
6 8 4 0
5 -4 11 0
-5 7 12 0
2 -8 4 0
6 -2 -11 0
5 -2 -9 0
-2 -8 -3 0
2 4 -7 0
